PIOM/Results/PIOM-RU-1-10.sol
# Solution for model PIOM-RU
# Objective value = 2.0001799488976375e+00
UB[0,0] 1
UB[0,1] 1
UB[1,0] 1
UB[1,1] 1
LB[0,0] 0
LB[0,1] 0
LB[1,0] 0
LB[1,1] 0
PD[0,0] 0
PD[0,1] 0
PD[1,0] 0
PD[1,1] 0
c[0,0] 0
c[0,1] 1
c[1,0] 0
c[1,1] 1
delt[0,0] 0.5
delt[0,1] 9.9971609798657474e-05
delt[1,0] 0.5
delt[1,1] 0
eta[0,0,0] 1
eta[0,0,1] 0
eta[0,1,0] 1
eta[0,1,1] 0
eta[1,0,0] 0
eta[1,0,1] 1
eta[1,1,0] 0
eta[1,1,1] 1
eta[2,0,0] 0
eta[2,0,1] 1
eta[2,1,0] 0
eta[2,1,1] 9.9999000283902006e-01
eta[3,0,0] 9.9971609799354155e-06
eta[3,0,1] 0
eta[3,1,0] 0
eta[3,1,1] 1
zeta[0] 1
zeta[1] 0
theta 0
phi[0,0] 9.9998000567804013e-01
phi[0,1] 1.9994321959731495e-04
phi[1,0] 1
phi[1,1] 0
